* #variable= 81 #constraint= 17
* Constraints for rUnitNextRestraint
min:  +800 x75 +400 x76 +400 x77 +400 x78 +400 x79 +400 x80 +400 x81 -1 x5 -1 x5 -1 x49;
* Callee-save Registers
 -1 x3 -1 x60 -1 x61 -1 x62 -1 x63 -1 x64 -1 x65 -1 x66 -1 x67 -1 x68 -1 x69 -1 x70 -1 x71 -1 x72 -1 x73 -1 x74 -1 x31 -1 x32 -1 x33 -1 x34 -1 x35 -1 x36 -1 x37 -1 x38 -1 x39 -1 x40 -1 x41 -1 x42 -1 x43 -1 x44 -1 x45 -1 x46 -1 x47 -1 x48 -1 x49 -1 x50 -1 x51 -1 x52 -1 x53 -1 x54 -1 x55 -1 x56 -1 x57 -1 x58 -1 x59 -1 x60 -1 x61 -1 x62 -1 x63 -1 x64 -1 x65 -1 x66 -1 x67 -1 x68 -1 x69 -1 x70 -1 x71 -1 x72 -1 x73 -1 x74 +60 x76 >= 0;
 -1 ~x3 -1 ~x60 -1 ~x61 -1 ~x62 -1 ~x63 -1 ~x64 -1 ~x65 -1 ~x66 -1 ~x67 -1 ~x68 -1 ~x69 -1 ~x70 -1 ~x71 -1 ~x72 -1 ~x73 -1 ~x74 -1 ~x31 -1 ~x32 -1 ~x33 -1 ~x34 -1 ~x35 -1 ~x36 -1 ~x37 -1 ~x38 -1 ~x39 -1 ~x40 -1 ~x41 -1 ~x42 -1 ~x43 -1 ~x44 -1 ~x45 -1 ~x46 -1 ~x47 -1 ~x48 -1 ~x49 -1 ~x50 -1 ~x51 -1 ~x52 -1 ~x53 -1 ~x54 -1 ~x55 -1 ~x56 -1 ~x57 -1 ~x58 -1 ~x59 -1 ~x60 -1 ~x61 -1 ~x62 -1 ~x63 -1 ~x64 -1 ~x65 -1 ~x66 -1 ~x67 -1 ~x68 -1 ~x69 -1 ~x70 -1 ~x71 -1 ~x72 -1 ~x73 -1 ~x74 +60 ~x76 >= -59;
 -1 x12 -1 x60 -1 x61 -1 x62 -1 x63 -1 x64 -1 x65 -1 x66 -1 x67 -1 x68 -1 x69 -1 x70 -1 x71 -1 x72 -1 x73 -1 x74 -1 x31 -1 x32 -1 x33 -1 x34 -1 x35 -1 x36 -1 x37 -1 x38 -1 x39 -1 x40 -1 x41 -1 x42 -1 x43 -1 x44 -1 x45 -1 x46 -1 x47 -1 x48 -1 x49 -1 x50 -1 x51 -1 x52 -1 x53 -1 x54 -1 x55 -1 x56 -1 x57 -1 x58 -1 x59 -1 x60 -1 x61 -1 x62 -1 x63 -1 x64 -1 x65 -1 x66 -1 x67 -1 x68 -1 x69 -1 x70 -1 x71 -1 x72 -1 x73 -1 x74 +60 x77 >= 0;
 -1 ~x12 -1 ~x60 -1 ~x61 -1 ~x62 -1 ~x63 -1 ~x64 -1 ~x65 -1 ~x66 -1 ~x67 -1 ~x68 -1 ~x69 -1 ~x70 -1 ~x71 -1 ~x72 -1 ~x73 -1 ~x74 -1 ~x31 -1 ~x32 -1 ~x33 -1 ~x34 -1 ~x35 -1 ~x36 -1 ~x37 -1 ~x38 -1 ~x39 -1 ~x40 -1 ~x41 -1 ~x42 -1 ~x43 -1 ~x44 -1 ~x45 -1 ~x46 -1 ~x47 -1 ~x48 -1 ~x49 -1 ~x50 -1 ~x51 -1 ~x52 -1 ~x53 -1 ~x54 -1 ~x55 -1 ~x56 -1 ~x57 -1 ~x58 -1 ~x59 -1 ~x60 -1 ~x61 -1 ~x62 -1 ~x63 -1 ~x64 -1 ~x65 -1 ~x66 -1 ~x67 -1 ~x68 -1 ~x69 -1 ~x70 -1 ~x71 -1 ~x72 -1 ~x73 -1 ~x74 +60 ~x77 >= -59;
 -1 x13 -1 x60 -1 x61 -1 x62 -1 x63 -1 x64 -1 x65 -1 x66 -1 x67 -1 x68 -1 x69 -1 x70 -1 x71 -1 x72 -1 x73 -1 x74 -1 x31 -1 x32 -1 x33 -1 x34 -1 x35 -1 x36 -1 x37 -1 x38 -1 x39 -1 x40 -1 x41 -1 x42 -1 x43 -1 x44 -1 x45 -1 x46 -1 x47 -1 x48 -1 x49 -1 x50 -1 x51 -1 x52 -1 x53 -1 x54 -1 x55 -1 x56 -1 x57 -1 x58 -1 x59 -1 x60 -1 x61 -1 x62 -1 x63 -1 x64 -1 x65 -1 x66 -1 x67 -1 x68 -1 x69 -1 x70 -1 x71 -1 x72 -1 x73 -1 x74 +60 x78 >= 0;
 -1 ~x13 -1 ~x60 -1 ~x61 -1 ~x62 -1 ~x63 -1 ~x64 -1 ~x65 -1 ~x66 -1 ~x67 -1 ~x68 -1 ~x69 -1 ~x70 -1 ~x71 -1 ~x72 -1 ~x73 -1 ~x74 -1 ~x31 -1 ~x32 -1 ~x33 -1 ~x34 -1 ~x35 -1 ~x36 -1 ~x37 -1 ~x38 -1 ~x39 -1 ~x40 -1 ~x41 -1 ~x42 -1 ~x43 -1 ~x44 -1 ~x45 -1 ~x46 -1 ~x47 -1 ~x48 -1 ~x49 -1 ~x50 -1 ~x51 -1 ~x52 -1 ~x53 -1 ~x54 -1 ~x55 -1 ~x56 -1 ~x57 -1 ~x58 -1 ~x59 -1 ~x60 -1 ~x61 -1 ~x62 -1 ~x63 -1 ~x64 -1 ~x65 -1 ~x66 -1 ~x67 -1 ~x68 -1 ~x69 -1 ~x70 -1 ~x71 -1 ~x72 -1 ~x73 -1 ~x74 +60 ~x78 >= -59;
 -1 x14 -1 x60 -1 x61 -1 x62 -1 x63 -1 x64 -1 x65 -1 x66 -1 x67 -1 x68 -1 x69 -1 x70 -1 x71 -1 x72 -1 x73 -1 x74 -1 x31 -1 x32 -1 x33 -1 x34 -1 x35 -1 x36 -1 x37 -1 x38 -1 x39 -1 x40 -1 x41 -1 x42 -1 x43 -1 x44 -1 x45 -1 x46 -1 x47 -1 x48 -1 x49 -1 x50 -1 x51 -1 x52 -1 x53 -1 x54 -1 x55 -1 x56 -1 x57 -1 x58 -1 x59 -1 x60 -1 x61 -1 x62 -1 x63 -1 x64 -1 x65 -1 x66 -1 x67 -1 x68 -1 x69 -1 x70 -1 x71 -1 x72 -1 x73 -1 x74 +60 x79 >= 0;
 -1 ~x14 -1 ~x60 -1 ~x61 -1 ~x62 -1 ~x63 -1 ~x64 -1 ~x65 -1 ~x66 -1 ~x67 -1 ~x68 -1 ~x69 -1 ~x70 -1 ~x71 -1 ~x72 -1 ~x73 -1 ~x74 -1 ~x31 -1 ~x32 -1 ~x33 -1 ~x34 -1 ~x35 -1 ~x36 -1 ~x37 -1 ~x38 -1 ~x39 -1 ~x40 -1 ~x41 -1 ~x42 -1 ~x43 -1 ~x44 -1 ~x45 -1 ~x46 -1 ~x47 -1 ~x48 -1 ~x49 -1 ~x50 -1 ~x51 -1 ~x52 -1 ~x53 -1 ~x54 -1 ~x55 -1 ~x56 -1 ~x57 -1 ~x58 -1 ~x59 -1 ~x60 -1 ~x61 -1 ~x62 -1 ~x63 -1 ~x64 -1 ~x65 -1 ~x66 -1 ~x67 -1 ~x68 -1 ~x69 -1 ~x70 -1 ~x71 -1 ~x72 -1 ~x73 -1 ~x74 +60 ~x79 >= -59;
 -1 x15 -1 x60 -1 x61 -1 x62 -1 x63 -1 x64 -1 x65 -1 x66 -1 x67 -1 x68 -1 x69 -1 x70 -1 x71 -1 x72 -1 x73 -1 x74 -1 x31 -1 x32 -1 x33 -1 x34 -1 x35 -1 x36 -1 x37 -1 x38 -1 x39 -1 x40 -1 x41 -1 x42 -1 x43 -1 x44 -1 x45 -1 x46 -1 x47 -1 x48 -1 x49 -1 x50 -1 x51 -1 x52 -1 x53 -1 x54 -1 x55 -1 x56 -1 x57 -1 x58 -1 x59 -1 x60 -1 x61 -1 x62 -1 x63 -1 x64 -1 x65 -1 x66 -1 x67 -1 x68 -1 x69 -1 x70 -1 x71 -1 x72 -1 x73 -1 x74 +60 x80 >= 0;
 -1 ~x15 -1 ~x60 -1 ~x61 -1 ~x62 -1 ~x63 -1 ~x64 -1 ~x65 -1 ~x66 -1 ~x67 -1 ~x68 -1 ~x69 -1 ~x70 -1 ~x71 -1 ~x72 -1 ~x73 -1 ~x74 -1 ~x31 -1 ~x32 -1 ~x33 -1 ~x34 -1 ~x35 -1 ~x36 -1 ~x37 -1 ~x38 -1 ~x39 -1 ~x40 -1 ~x41 -1 ~x42 -1 ~x43 -1 ~x44 -1 ~x45 -1 ~x46 -1 ~x47 -1 ~x48 -1 ~x49 -1 ~x50 -1 ~x51 -1 ~x52 -1 ~x53 -1 ~x54 -1 ~x55 -1 ~x56 -1 ~x57 -1 ~x58 -1 ~x59 -1 ~x60 -1 ~x61 -1 ~x62 -1 ~x63 -1 ~x64 -1 ~x65 -1 ~x66 -1 ~x67 -1 ~x68 -1 ~x69 -1 ~x70 -1 ~x71 -1 ~x72 -1 ~x73 -1 ~x74 +60 ~x80 >= -59;
 -1 x2 -1 x60 -1 x61 -1 x62 -1 x63 -1 x64 -1 x65 -1 x66 -1 x67 -1 x68 -1 x69 -1 x70 -1 x71 -1 x72 -1 x73 -1 x74 -1 x31 -1 x32 -1 x33 -1 x34 -1 x35 -1 x36 -1 x37 -1 x38 -1 x39 -1 x40 -1 x41 -1 x42 -1 x43 -1 x44 -1 x45 -1 x46 -1 x47 -1 x48 -1 x49 -1 x50 -1 x51 -1 x52 -1 x53 -1 x54 -1 x55 -1 x56 -1 x57 -1 x58 -1 x59 -1 x60 -1 x61 -1 x62 -1 x63 -1 x64 -1 x65 -1 x66 -1 x67 -1 x68 -1 x69 -1 x70 -1 x71 -1 x72 -1 x73 -1 x74 +60 x81 >= 0;
 -1 ~x2 -1 ~x60 -1 ~x61 -1 ~x62 -1 ~x63 -1 ~x64 -1 ~x65 -1 ~x66 -1 ~x67 -1 ~x68 -1 ~x69 -1 ~x70 -1 ~x71 -1 ~x72 -1 ~x73 -1 ~x74 -1 ~x31 -1 ~x32 -1 ~x33 -1 ~x34 -1 ~x35 -1 ~x36 -1 ~x37 -1 ~x38 -1 ~x39 -1 ~x40 -1 ~x41 -1 ~x42 -1 ~x43 -1 ~x44 -1 ~x45 -1 ~x46 -1 ~x47 -1 ~x48 -1 ~x49 -1 ~x50 -1 ~x51 -1 ~x52 -1 ~x53 -1 ~x54 -1 ~x55 -1 ~x56 -1 ~x57 -1 ~x58 -1 ~x59 -1 ~x60 -1 ~x61 -1 ~x62 -1 ~x63 -1 ~x64 -1 ~x65 -1 ~x66 -1 ~x67 -1 ~x68 -1 ~x69 -1 ~x70 -1 ~x71 -1 ~x72 -1 ~x73 -1 ~x74 +60 ~x81 >= -59;
* Move Conjunctions
* Valid Assignment
 +1 x1 +1 x2 +1 x3 +1 x4 +1 x5 +1 x6 +1 x7 +1 x8 +1 x9 +1 x10 +1 x11 +1 x12 +1 x13 +1 x14 +1 x15 +1 x75 = 1;
* Valid Usage
 -1 x75 +1 x60 +1 x61 +1 x62 +1 x63 +1 x64 +1 x65 +1 x66 +1 x67 +1 x68 +1 x69 +1 x70 +1 x71 +1 x72 +1 x73 +1 x74 = 0;
 -1 x75 +1 x31 +1 x32 +1 x33 +1 x34 +1 x35 +1 x36 +1 x37 +1 x38 +1 x39 +1 x40 +1 x41 +1 x42 +1 x43 +1 x44 = 0;
 -1 x75 +1 x45 +1 x46 +1 x47 +1 x48 +1 x49 +1 x50 +1 x51 +1 x52 +1 x53 +1 x54 +1 x55 +1 x56 +1 x57 +1 x58 +1 x59 = 0;
 -1 x75 +1 x60 +1 x61 +1 x62 +1 x63 +1 x64 +1 x65 +1 x66 +1 x67 +1 x68 +1 x69 +1 x70 +1 x71 +1 x72 +1 x73 +1 x74 = 0;
* Conflict Constraints
* Usage Constraints
